c "850937.clq"
p edge 253 3792
e 1 17
e 1 18
e 1 19
e 1 20
e 1 21
e 1 22
e 1 24
e 1 27
e 1 30
e 1 34
e 1 35
e 1 36
e 1 41
e 1 51
e 1 59
e 1 60
e 1 69
e 1 72
e 1 83
e 1 86
e 1 93
e 1 97
e 1 98
e 1 105
e 1 111
e 1 113
e 1 148
e 1 150
e 1 151
e 1 156
e 1 165
e 1 166
e 1 170
e 1 173
e 1 175
e 1 178
e 1 182
e 1 184
e 1 202
e 1 211
e 1 213
e 1 215
e 1 227
e 1 236
e 1 245
e 2 17
e 2 18
e 2 19
e 2 23
e 2 26
e 2 27
e 2 28
e 2 30
e 2 34
e 2 35
e 2 41
e 2 44
e 2 48
e 2 51
e 2 52
e 2 62
e 2 67
e 2 69
e 2 74
e 2 84
e 2 85
e 2 89
e 2 120
e 2 123
e 2 131
e 2 139
e 2 143
e 2 147
e 2 149
e 2 150
e 2 151
e 2 161
e 2 167
e 2 175
e 2 177
e 2 180
e 2 198
e 2 213
e 2 217
e 2 218
e 2 235
e 2 248
e 2 249
e 2 251
e 3 17
e 3 18
e 3 20
e 3 21
e 3 22
e 3 23
e 3 24
e 3 25
e 3 26
e 3 27
e 3 29
e 3 32
e 3 34
e 3 40
e 3 43
e 3 45
e 3 48
e 3 49
e 3 50
e 3 51
e 3 52
e 3 54
e 3 57
e 3 63
e 3 64
e 3 66
e 3 70
e 3 71
e 3 74
e 3 76
e 3 77
e 3 78
e 3 80
e 3 89
e 3 95
e 3 97
e 3 98
e 3 105
e 3 106
e 3 109
e 3 131
e 3 132
e 3 154
e 3 169
e 3 192
e 3 206
e 3 207
e 3 214
e 3 216
e 3 220
e 3 224
e 3 226
e 3 230
e 3 234
e 3 250
e 4 17
e 4 18
e 4 19
e 4 20
e 4 21
e 4 22
e 4 25
e 4 26
e 4 27
e 4 28
e 4 31
e 4 33
e 4 34
e 4 35
e 4 38
e 4 43
e 4 45
e 4 47
e 4 55
e 4 63
e 4 68
e 4 73
e 4 79
e 4 88
e 4 90
e 4 91
e 4 95
e 4 99
e 4 101
e 4 102
e 4 108
e 4 111
e 4 115
e 4 119
e 4 128
e 4 152
e 4 153
e 4 159
e 4 160
e 4 168
e 4 186
e 4 188
e 4 204
e 4 207
e 4 210
e 4 220
e 4 223
e 4 224
e 4 225
e 4 237
e 4 249
e 5 17
e 5 20
e 5 28
e 5 31
e 5 36
e 5 43
e 5 46
e 5 47
e 5 49
e 5 54
e 5 57
e 5 60
e 5 80
e 5 84
e 5 97
e 5 104
e 5 106
e 5 123
e 5 128
e 5 146
e 5 147
e 5 186
e 5 200
e 5 211
e 5 213
e 5 223
e 5 225
e 5 248
e 6 17
e 6 18
e 6 19
e 6 20
e 6 21
e 6 22
e 6 23
e 6 24
e 6 25
e 6 26
e 6 29
e 6 32
e 6 33
e 6 34
e 6 35
e 6 36
e 6 37
e 6 40
e 6 42
e 6 43
e 6 44
e 6 50
e 6 52
e 6 53
e 6 54
e 6 55
e 6 57
e 6 59
e 6 63
e 6 64
e 6 66
e 6 68
e 6 71
e 6 73
e 6 74
e 6 81
e 6 84
e 6 86
e 6 93
e 6 99
e 6 100
e 6 106
e 6 107
e 6 116
e 6 123
e 6 132
e 6 137
e 6 139
e 6 140
e 6 161
e 6 163
e 6 180
e 6 187
e 6 191
e 6 198
e 6 201
e 6 203
e 6 207
e 6 212
e 6 215
e 6 218
e 6 228
e 6 250
e 6 252
e 7 17
e 7 18
e 7 19
e 7 21
e 7 22
e 7 23
e 7 24
e 7 26
e 7 27
e 7 28
e 7 32
e 7 36
e 7 37
e 7 39
e 7 41
e 7 44
e 7 45
e 7 48
e 7 57
e 7 63
e 7 64
e 7 72
e 7 73
e 7 75
e 7 76
e 7 78
e 7 79
e 7 88
e 7 92
e 7 93
e 7 94
e 7 100
e 7 104
e 7 105
e 7 117
e 7 120
e 7 122
e 7 128
e 7 132
e 7 140
e 7 149
e 7 152
e 7 155
e 7 157
e 7 167
e 7 169
e 7 176
e 7 180
e 7 182
e 7 184
e 7 186
e 7 188
e 7 195
e 7 210
e 7 213
e 7 221
e 7 229
e 7 249
e 8 17
e 8 18
e 8 19
e 8 20
e 8 21
e 8 22
e 8 23
e 8 25
e 8 28
e 8 32
e 8 34
e 8 41
e 8 54
e 8 56
e 8 59
e 8 63
e 8 97
e 8 99
e 8 108
e 8 111
e 8 114
e 8 153
e 8 176
e 8 195
e 8 212
e 9 17
e 9 18
e 9 19
e 9 20
e 9 21
e 9 22
e 9 23
e 9 24
e 9 26
e 9 32
e 9 36
e 9 37
e 9 39
e 9 44
e 9 45
e 9 47
e 9 48
e 9 53
e 9 59
e 9 63
e 9 64
e 9 65
e 9 68
e 9 73
e 9 75
e 9 92
e 9 97
e 9 104
e 9 106
e 9 120
e 9 123
e 9 124
e 9 140
e 9 145
e 9 147
e 9 153
e 9 158
e 9 162
e 9 165
e 9 167
e 9 171
e 9 178
e 9 188
e 9 189
e 9 191
e 9 209
e 9 210
e 9 216
e 9 218
e 9 230
e 9 233
e 9 235
e 9 243
e 9 244
e 9 245
e 10 17
e 10 18
e 10 19
e 10 20
e 10 21
e 10 23
e 10 24
e 10 25
e 10 26
e 10 27
e 10 28
e 10 29
e 10 30
e 10 33
e 10 34
e 10 35
e 10 41
e 10 45
e 10 46
e 10 49
e 10 53
e 10 57
e 10 58
e 10 69
e 10 71
e 10 78
e 10 87
e 10 88
e 10 97
e 10 98
e 10 110
e 10 111
e 10 112
e 10 128
e 10 129
e 10 135
e 10 139
e 10 143
e 10 160
e 10 162
e 10 164
e 10 180
e 10 206
e 10 234
e 10 236
e 10 251
e 11 17
e 11 18
e 11 19
e 11 20
e 11 21
e 11 22
e 11 23
e 11 29
e 11 30
e 11 31
e 11 33
e 11 38
e 11 41
e 11 44
e 11 45
e 11 53
e 11 55
e 11 58
e 11 63
e 11 65
e 11 75
e 11 78
e 11 92
e 11 95
e 11 102
e 11 104
e 11 110
e 11 142
e 11 154
e 11 177
e 11 178
e 11 210
e 11 218
e 11 231
e 11 237
e 11 252
e 12 17
e 12 18
e 12 19
e 12 34
e 12 40
e 12 46
e 12 49
e 12 81
e 12 86
e 12 130
e 12 131
e 12 138
e 12 149
e 12 173
e 13 17
e 13 18
e 13 19
e 13 20
e 13 21
e 13 23
e 13 24
e 13 25
e 13 29
e 13 32
e 13 39
e 13 44
e 13 46
e 13 51
e 13 58
e 13 62
e 13 71
e 13 76
e 13 81
e 13 91
e 13 96
e 13 121
e 13 125
e 13 131
e 13 137
e 13 143
e 13 155
e 13 161
e 13 162
e 13 166
e 13 168
e 13 197
e 13 221
e 13 225
e 13 227
e 13 228
e 13 234
e 13 242
e 14 17
e 14 18
e 14 19
e 14 20
e 14 21
e 14 22
e 14 23
e 14 24
e 14 25
e 14 27
e 14 28
e 14 29
e 14 31
e 14 32
e 14 33
e 14 35
e 14 36
e 14 38
e 14 39
e 14 40
e 14 42
e 14 43
e 14 46
e 14 49
e 14 50
e 14 60
e 14 69
e 14 70
e 14 72
e 14 74
e 14 77
e 14 81
e 14 87
e 14 101
e 14 117
e 14 119
e 14 127
e 14 153
e 14 171
e 14 181
e 14 200
e 14 202
e 14 206
e 14 222
e 14 238
e 14 245
e 15 17
e 15 18
e 15 19
e 15 20
e 15 21
e 15 22
e 15 24
e 15 25
e 15 26
e 15 27
e 15 29
e 15 30
e 15 37
e 15 39
e 15 42
e 15 45
e 15 46
e 15 54
e 15 55
e 15 58
e 15 60
e 15 61
e 15 64
e 15 66
e 15 82
e 15 85
e 15 96
e 15 97
e 15 109
e 15 111
e 15 119
e 15 124
e 15 141
e 15 145
e 15 146
e 15 152
e 15 156
e 15 158
e 15 161
e 15 173
e 15 174
e 15 179
e 15 181
e 15 194
e 15 207
e 15 222
e 15 223
e 15 231
e 15 243
e 15 244
e 15 246
e 16 17
e 16 18
e 16 19
e 16 20
e 16 22
e 16 26
e 16 28
e 16 31
e 16 32
e 16 33
e 16 34
e 16 37
e 16 38
e 16 39
e 16 44
e 16 47
e 16 52
e 16 54
e 16 67
e 16 70
e 16 78
e 16 81
e 16 82
e 16 86
e 16 89
e 16 91
e 16 94
e 16 101
e 16 110
e 16 111
e 16 112
e 16 113
e 16 120
e 16 122
e 16 130
e 16 132
e 16 142
e 16 148
e 16 153
e 16 162
e 16 165
e 16 173
e 16 176
e 16 181
e 16 183
e 16 187
e 16 198
e 16 200
e 16 212
e 16 216
e 16 235
e 16 241
e 16 249
e 17 18
e 17 19
e 17 20
e 17 21
e 17 22
e 17 23
e 17 24
e 17 25
e 17 26
e 17 27
e 17 29
e 17 30
e 17 31
e 17 32
e 17 33
e 17 35
e 17 36
e 17 37
e 17 38
e 17 39
e 17 40
e 17 42
e 17 44
e 17 46
e 17 47
e 17 48
e 17 49
e 17 52
e 17 53
e 17 57
e 17 63
e 17 64
e 17 65
e 17 67
e 17 69
e 17 72
e 17 76
e 17 77
e 17 78
e 17 80
e 17 82
e 17 90
e 17 91
e 17 92
e 17 94
e 17 96
e 17 101
e 17 102
e 17 106
e 17 108
e 17 110
e 17 113
e 17 114
e 17 117
e 17 118
e 17 121
e 17 122
e 17 123
e 17 124
e 17 126
e 17 136
e 17 142
e 17 143
e 17 152
e 17 155
e 17 159
e 17 172
e 17 173
e 17 174
e 17 177
e 17 184
e 17 186
e 17 195
e 17 197
e 17 199
e 17 206
e 17 210
e 17 216
e 17 222
e 17 226
e 17 227
e 17 228
e 17 229
e 17 235
e 17 236
e 17 240
e 17 242
e 17 247
e 17 248
e 17 249
e 17 251
e 18 19
e 18 20
e 18 21
e 18 22
e 18 23
e 18 24
e 18 25
e 18 26
e 18 28
e 18 29
e 18 30
e 18 31
e 18 32
e 18 33
e 18 37
e 18 38
e 18 39
e 18 40
e 18 42
e 18 43
e 18 45
e 18 47
e 18 48
e 18 50
e 18 51
e 18 52
e 18 60
e 18 61
e 18 62
e 18 67
e 18 69
e 18 72
e 18 78
e 18 79
e 18 81
e 18 82
e 18 83
e 18 90
e 18 91
e 18 92
e 18 96
e 18 102
e 18 103
e 18 116
e 18 123
e 18 124
e 18 126
e 18 128
e 18 129
e 18 134
e 18 147
e 18 152
e 18 153
e 18 155
e 18 156
e 18 158
e 18 170
e 18 171
e 18 175
e 18 186
e 18 193
e 18 198
e 18 199
e 18 201
e 18 204
e 18 225
e 18 226
e 18 230
e 18 232
e 18 239
e 18 250
e 19 20
e 19 21
e 19 22
e 19 23
e 19 24
e 19 25
e 19 26
e 19 28
e 19 29
e 19 30
e 19 33
e 19 34
e 19 35
e 19 37
e 19 38
e 19 39
e 19 40
e 19 41
e 19 42
e 19 46
e 19 48
e 19 50
e 19 51
e 19 53
e 19 54
e 19 55
e 19 56
e 19 58
e 19 59
e 19 62
e 19 66
e 19 69
e 19 73
e 19 74
e 19 80
e 19 84
e 19 86
e 19 88
e 19 89
e 19 92
e 19 100
e 19 102
e 19 106
e 19 110
e 19 114
e 19 115
e 19 117
e 19 119
e 19 121
e 19 126
e 19 127
e 19 133
e 19 134
e 19 137
e 19 138
e 19 140
e 19 145
e 19 148
e 19 163
e 19 166
e 19 167
e 19 169
e 19 172
e 19 176
e 19 192
e 19 193
e 19 197
e 19 198
e 19 204
e 19 216
e 19 220
e 19 222
e 19 225
e 19 237
e 19 253
e 20 21
e 20 22
e 20 23
e 20 24
e 20 25
e 20 26
e 20 27
e 20 28
e 20 30
e 20 31
e 20 33
e 20 34
e 20 39
e 20 40
e 20 41
e 20 42
e 20 48
e 20 50
e 20 53
e 20 54
e 20 55
e 20 56
e 20 60
e 20 63
e 20 66
e 20 67
e 20 69
e 20 70
e 20 71
e 20 72
e 20 74
e 20 76
e 20 80
e 20 83
e 20 85
e 20 87
e 20 89
e 20 91
e 20 94
e 20 96
e 20 97
e 20 103
e 20 108
e 20 110
e 20 119
e 20 120
e 20 131
e 20 133
e 20 136
e 20 138
e 20 139
e 20 147
e 20 158
e 20 160
e 20 174
e 20 178
e 20 181
e 20 182
e 20 183
e 20 186
e 20 194
e 20 196
e 20 203
e 20 210
e 20 214
e 20 215
e 20 220
e 20 226
e 20 234
e 20 251
e 21 22
e 21 23
e 21 24
e 21 25
e 21 26
e 21 27
e 21 28
e 21 29
e 21 30
e 21 31
e 21 32
e 21 33
e 21 36
e 21 38
e 21 40
e 21 42
e 21 43
e 21 47
e 21 48
e 21 49
e 21 50
e 21 52
e 21 54
e 21 55
e 21 57
e 21 60
e 21 62
e 21 65
e 21 66
e 21 68
e 21 71
e 21 72
e 21 73
e 21 78
e 21 82
e 21 84
e 21 85
e 21 86
e 21 87
e 21 89
e 21 90
e 21 93
e 21 96
e 21 99
e 21 101
e 21 103
e 21 109
e 21 117
e 21 119
e 21 120
e 21 124
e 21 125
e 21 127
e 21 131
e 21 137
e 21 138
e 21 143
e 21 146
e 21 151
e 21 154
e 21 159
e 21 160
e 21 167
e 21 169
e 21 179
e 21 184
e 21 189
e 21 198
e 21 199
e 21 212
e 21 214
e 21 217
e 21 222
e 21 229
e 21 231
e 21 232
e 21 239
e 21 253
e 22 23
e 22 24
e 22 25
e 22 26
e 22 27
e 22 28
e 22 30
e 22 31
e 22 32
e 22 33
e 22 35
e 22 36
e 22 37
e 22 38
e 22 39
e 22 40
e 22 41
e 22 43
e 22 45
e 22 46
e 22 47
e 22 53
e 22 55
e 22 56
e 22 57
e 22 58
e 22 59
e 22 60
e 22 61
e 22 62
e 22 64
e 22 65
e 22 66
e 22 68
e 22 70
e 22 79
e 22 80
e 22 86
e 22 91
e 22 93
e 22 94
e 22 96
e 22 98
e 22 105
e 22 109
e 22 114
e 22 125
e 22 129
e 22 136
e 22 137
e 22 138
e 22 141
e 22 143
e 22 147
e 22 150
e 22 151
e 22 155
e 22 164
e 22 166
e 22 169
e 22 180
e 22 181
e 22 184
e 22 195
e 22 197
e 22 208
e 22 215
e 22 220
e 22 227
e 22 236
e 22 240
e 22 241
e 22 245
e 22 249
e 22 250
e 22 251
e 23 24
e 23 25
e 23 27
e 23 28
e 23 29
e 23 30
e 23 31
e 23 37
e 23 38
e 23 42
e 23 48
e 23 52
e 23 53
e 23 54
e 23 55
e 23 56
e 23 57
e 23 63
e 23 64
e 23 65
e 23 66
e 23 68
e 23 69
e 23 70
e 23 77
e 23 79
e 23 81
e 23 82
e 23 84
e 23 89
e 23 92
e 23 93
e 23 94
e 23 97
e 23 98
e 23 102
e 23 103
e 23 105
e 23 107
e 23 111
e 23 112
e 23 115
e 23 116
e 23 118
e 23 120
e 23 121
e 23 127
e 23 131
e 23 135
e 23 137
e 23 144
e 23 146
e 23 152
e 23 155
e 23 158
e 23 182
e 23 187
e 23 188
e 23 193
e 23 205
e 23 206
e 23 219
e 23 230
e 23 232
e 23 234
e 23 236
e 23 242
e 23 246
e 24 25
e 24 26
e 24 27
e 24 28
e 24 29
e 24 30
e 24 31
e 24 33
e 24 37
e 24 38
e 24 39
e 24 43
e 24 44
e 24 45
e 24 46
e 24 47
e 24 48
e 24 50
e 24 52
e 24 53
e 24 57
e 24 58
e 24 59
e 24 63
e 24 68
e 24 75
e 24 76
e 24 77
e 24 79
e 24 80
e 24 84
e 24 89
e 24 92
e 24 93
e 24 95
e 24 99
e 24 101
e 24 106
e 24 108
e 24 109
e 24 112
e 24 116
e 24 117
e 24 118
e 24 121
e 24 127
e 24 130
e 24 135
e 24 138
e 24 141
e 24 144
e 24 150
e 24 156
e 24 159
e 24 162
e 24 166
e 24 167
e 24 170
e 24 174
e 24 178
e 24 182
e 24 185
e 24 188
e 24 189
e 24 190
e 24 194
e 24 198
e 24 200
e 24 226
e 24 238
e 24 239
e 24 241
e 24 249
e 24 253
e 25 27
e 25 29
e 25 32
e 25 33
e 25 34
e 25 35
e 25 39
e 25 40
e 25 41
e 25 43
e 25 53
e 25 57
e 25 58
e 25 59
e 25 61
e 25 62
e 25 64
e 25 69
e 25 76
e 25 83
e 25 87
e 25 90
e 25 99
e 25 104
e 25 111
e 25 116
e 25 122
e 25 125
e 25 129
e 25 131
e 25 138
e 25 140
e 25 145
e 25 151
e 25 157
e 25 158
e 25 162
e 25 163
e 25 169
e 25 171
e 25 172
e 25 179
e 25 182
e 25 189
e 25 191
e 25 193
e 25 196
e 25 201
e 25 219
e 25 223
e 25 238
e 25 240
e 25 243
e 25 251
e 25 252
e 26 27
e 26 28
e 26 29
e 26 30
e 26 31
e 26 32
e 26 33
e 26 34
e 26 35
e 26 36
e 26 37
e 26 41
e 26 42
e 26 43
e 26 44
e 26 45
e 26 46
e 26 48
e 26 50
e 26 56
e 26 59
e 26 64
e 26 74
e 26 76
e 26 79
e 26 80
e 26 87
e 26 90
e 26 91
e 26 97
e 26 103
e 26 105
e 26 106
e 26 107
e 26 112
e 26 114
e 26 115
e 26 116
e 26 118
e 26 124
e 26 126
e 26 127
e 26 130
e 26 149
e 26 151
e 26 162
e 26 173
e 26 177
e 26 178
e 26 185
e 26 186
e 26 191
e 26 197
e 26 205
e 26 211
e 26 219
e 26 223
e 26 230
e 26 242
e 26 244
e 26 245
e 26 247
e 26 250
e 27 29
e 27 32
e 27 33
e 27 34
e 27 35
e 27 37
e 27 38
e 27 39
e 27 40
e 27 41
e 27 43
e 27 44
e 27 49
e 27 54
e 27 55
e 27 58
e 27 60
e 27 67
e 27 68
e 27 70
e 27 74
e 27 77
e 27 81
e 27 83
e 27 86
e 27 88
e 27 90
e 27 94
e 27 98
e 27 102
e 27 112
e 27 115
e 27 120
e 27 125
e 27 134
e 27 135
e 27 139
e 27 142
e 27 145
e 27 149
e 27 152
e 27 154
e 27 163
e 27 172
e 27 175
e 27 182
e 27 191
e 27 203
e 27 206
e 27 209
e 27 217
e 27 220
e 27 228
e 27 235
e 27 237
e 27 238
e 27 241
e 27 243
e 28 30
e 28 31
e 28 32
e 28 35
e 28 36
e 28 46
e 28 49
e 28 52
e 28 55
e 28 59
e 28 61
e 28 65
e 28 67
e 28 68
e 28 69
e 28 70
e 28 75
e 28 77
e 28 80
e 28 87
e 28 89
e 28 91
e 28 101
e 28 105
e 28 108
e 28 125
e 28 157
e 28 161
e 28 164
e 28 175
e 28 178
e 28 188
e 28 189
e 28 206
e 28 213
e 28 214
e 28 233
e 28 237
e 28 240
e 28 245
e 28 249
e 29 30
e 29 31
e 29 34
e 29 35
e 29 36
e 29 40
e 29 42
e 29 45
e 29 47
e 29 53
e 29 54
e 29 59
e 29 61
e 29 62
e 29 65
e 29 67
e 29 69
e 29 72
e 29 77
e 29 78
e 29 79
e 29 80
e 29 81
e 29 85
e 29 88
e 29 99
e 29 100
e 29 106
e 29 113
e 29 117
e 29 123
e 29 125
e 29 129
e 29 132
e 29 135
e 29 136
e 29 139
e 29 142
e 29 146
e 29 148
e 29 160
e 29 162
e 29 166
e 29 174
e 29 181
e 29 185
e 29 192
e 29 199
e 29 202
e 29 207
e 29 217
e 29 241
e 29 249
e 29 250
e 29 251
e 29 253
e 30 31
e 30 35
e 30 36
e 30 37
e 30 39
e 30 41
e 30 43
e 30 45
e 30 47
e 30 49
e 30 50
e 30 52
e 30 54
e 30 64
e 30 71
e 30 72
e 30 73
e 30 79
e 30 82
e 30 84
e 30 88
e 30 89
e 30 90
e 30 93
e 30 101
e 30 106
e 30 107
e 30 111
e 30 119
e 30 121
e 30 125
e 30 126
e 30 128
e 30 137
e 30 139
e 30 141
e 30 149
e 30 152
e 30 154
e 30 170
e 30 173
e 30 180
e 30 184
e 30 187
e 30 195
e 30 196
e 30 203
e 30 208
e 30 214
e 30 219
e 30 222
e 30 228
e 30 240
e 31 34
e 31 36
e 31 39
e 31 41
e 31 43
e 31 45
e 31 56
e 31 60
e 31 61
e 31 62
e 31 63
e 31 67
e 31 69
e 31 75
e 31 76
e 31 82
e 31 89
e 31 90
e 31 93
e 31 95
e 31 120
e 31 122
e 31 124
e 31 131
e 31 133
e 31 136
e 31 137
e 31 154
e 31 161
e 31 162
e 31 178
e 31 187
e 31 189
e 31 194
e 31 195
e 31 197
e 31 213
e 31 215
e 31 231
e 31 240
e 31 252
e 31 253
e 32 36
e 32 41
e 32 42
e 32 44
e 32 45
e 32 50
e 32 51
e 32 54
e 32 57
e 32 61
e 32 72
e 32 88
e 32 97
e 32 102
e 32 107
e 32 109
e 32 111
e 32 116
e 32 118
e 32 119
e 32 120
e 32 123
e 32 143
e 32 146
e 32 162
e 32 167
e 32 176
e 32 183
e 32 186
e 32 211
e 32 212
e 32 217
e 32 232
e 32 240
e 33 35
e 33 36
e 33 38
e 33 40
e 33 42
e 33 46
e 33 49
e 33 51
e 33 59
e 33 66
e 33 77
e 33 78
e 33 80
e 33 81
e 33 86
e 33 88
e 33 95
e 33 97
e 33 102
e 33 114
e 33 118
e 33 125
e 33 132
e 33 139
e 33 161
e 33 205
e 33 237
e 33 248
e 34 38
e 34 40
e 34 43
e 34 44
e 34 50
e 34 52
e 34 57
e 34 59
e 34 64
e 34 68
e 34 72
e 34 73
e 34 74
e 34 76
e 34 81
e 34 85
e 34 88
e 34 92
e 34 110
e 34 118
e 34 120
e 34 124
e 34 132
e 34 134
e 34 135
e 34 140
e 34 142
e 34 143
e 34 144
e 34 148
e 34 162
e 34 163
e 34 168
e 34 175
e 34 187
e 34 205
e 34 209
e 34 211
e 34 215
e 34 232
e 34 247
e 34 253
e 35 37
e 35 38
e 35 46
e 35 50
e 35 51
e 35 55
e 35 56
e 35 58
e 35 59
e 35 61
e 35 64
e 35 66
e 35 68
e 35 70
e 35 73
e 35 74
e 35 79
e 35 80
e 35 88
e 35 93
e 35 96
e 35 100
e 35 104
e 35 108
e 35 115
e 35 126
e 35 130
e 35 132
e 35 142
e 35 145
e 35 147
e 35 157
e 35 168
e 35 187
e 35 196
e 35 223
e 35 253
e 36 37
e 36 42
e 36 47
e 36 54
e 36 60
e 36 74
e 36 76
e 36 80
e 36 83
e 36 85
e 36 91
e 36 95
e 36 99
e 36 102
e 36 103
e 36 105
e 36 109
e 36 119
e 36 122
e 36 136
e 36 138
e 36 139
e 36 143
e 36 145
e 36 178
e 36 181
e 36 185
e 36 206
e 36 235
e 36 246
e 37 38
e 37 46
e 37 47
e 37 48
e 37 51
e 37 54
e 37 57
e 37 59
e 37 64
e 37 66
e 37 67
e 37 72
e 37 79
e 37 82
e 37 83
e 37 97
e 37 99
e 37 106
e 37 108
e 37 111
e 37 122
e 37 126
e 37 151
e 37 159
e 37 175
e 37 179
e 37 180
e 37 184
e 37 190
e 37 220
e 37 225
e 37 228
e 37 247
e 37 250
e 38 40
e 38 43
e 38 50
e 38 53
e 38 56
e 38 65
e 38 76
e 38 77
e 38 83
e 38 84
e 38 86
e 38 87
e 38 91
e 38 103
e 38 107
e 38 112
e 38 113
e 38 121
e 38 123
e 38 136
e 38 141
e 38 149
e 38 152
e 38 153
e 38 166
e 38 169
e 38 182
e 38 187
e 38 189
e 38 192
e 38 194
e 38 210
e 38 211
e 38 218
e 38 219
e 38 225
e 38 232
e 38 234
e 38 238
e 38 243
e 38 249
e 39 42
e 39 45
e 39 47
e 39 49
e 39 51
e 39 53
e 39 56
e 39 58
e 39 62
e 39 66
e 39 73
e 39 75
e 39 92
e 39 93
e 39 94
e 39 95
e 39 100
e 39 101
e 39 114
e 39 121
e 39 126
e 39 155
e 39 164
e 39 171
e 39 175
e 39 176
e 39 188
e 39 191
e 39 218
e 39 223
e 39 227
e 39 229
e 39 241
e 39 251
e 40 41
e 40 42
e 40 44
e 40 47
e 40 53
e 40 55
e 40 56
e 40 57
e 40 61
e 40 69
e 40 70
e 40 71
e 40 72
e 40 73
e 40 79
e 40 84
e 40 104
e 40 105
e 40 106
e 40 107
e 40 111
e 40 113
e 40 116
e 40 131
e 40 137
e 40 138
e 40 148
e 40 149
e 40 153
e 40 154
e 40 160
e 40 168
e 40 169
e 40 171
e 40 174
e 40 180
e 40 185
e 40 190
e 40 198
e 40 202
e 40 212
e 40 221
e 40 222
e 40 241
e 40 247
e 40 251
e 40 253
e 41 44
e 41 52
e 41 58
e 41 60
e 41 69
e 41 71
e 41 83
e 41 96
e 41 108
e 41 109
e 41 112
e 41 130
e 41 145
e 41 169
e 41 195
e 41 196
e 41 197
e 41 201
e 41 211
e 42 44
e 42 46
e 42 50
e 42 56
e 42 61
e 42 62
e 42 73
e 42 75
e 42 85
e 42 90
e 42 100
e 42 102
e 42 104
e 42 106
e 42 107
e 42 113
e 42 115
e 42 118
e 42 127
e 42 141
e 42 158
e 42 163
e 42 164
e 42 172
e 42 177
e 42 183
e 42 196
e 42 201
e 42 210
e 42 224
e 42 228
e 42 242
e 43 47
e 43 48
e 43 49
e 43 51
e 43 52
e 43 56
e 43 61
e 43 62
e 43 68
e 43 69
e 43 75
e 43 85
e 43 87
e 43 99
e 43 100
e 43 106
e 43 108
e 43 111
e 43 115
e 43 123
e 43 126
e 43 127
e 43 129
e 43 140
e 43 152
e 43 154
e 43 155
e 43 156
e 43 157
e 43 176
e 43 204
e 43 207
e 43 232
e 43 238
e 43 241
e 43 244
e 44 49
e 44 50
e 44 51
e 44 61
e 44 70
e 44 77
e 44 79
e 44 83
e 44 85
e 44 87
e 44 112
e 44 114
e 44 115
e 44 124
e 44 127
e 44 134
e 44 140
e 44 141
e 44 144
e 44 148
e 44 150
e 44 162
e 44 172
e 44 191
e 44 195
e 44 196
e 44 207
e 44 223
e 44 244
e 45 48
e 45 52
e 45 62
e 45 64
e 45 67
e 45 71
e 45 75
e 45 84
e 45 89
e 45 92
e 45 95
e 45 100
e 45 113
e 45 117
e 45 120
e 45 122
e 45 125
e 45 130
e 45 133
e 45 146
e 45 154
e 45 158
e 45 160
e 45 173
e 45 174
e 45 175
e 45 190
e 45 193
e 45 218
e 45 223
e 45 229
e 45 237
e 46 48
e 46 49
e 46 51
e 46 56
e 46 60
e 46 61
e 46 62
e 46 65
e 46 68
e 46 73
e 46 78
e 46 86
e 46 88
e 46 90
e 46 91
e 46 99
e 46 110
e 46 114
e 46 122
e 46 130
e 46 136
e 46 139
e 46 141
e 46 145
e 46 147
e 46 151
e 46 165
e 46 183
e 46 185
e 46 191
e 46 206
e 46 207
e 46 216
e 46 218
e 46 219
e 46 223
e 46 225
e 46 227
e 46 228
e 46 236
e 46 240
e 46 252
e 47 53
e 47 58
e 47 65
e 47 68
e 47 71
e 47 82
e 47 94
e 47 98
e 47 105
e 47 115
e 47 116
e 47 117
e 47 122
e 47 124
e 47 125
e 47 137
e 47 140
e 47 147
e 47 151
e 47 155
e 47 159
e 47 168
e 47 170
e 47 176
e 47 180
e 47 194
e 47 204
e 47 214
e 47 215
e 47 227
e 47 233
e 47 234
e 47 243
e 47 248
e 48 49
e 48 51
e 48 59
e 48 62
e 48 64
e 48 66
e 48 75
e 48 76
e 48 80
e 48 85
e 48 86
e 48 92
e 48 107
e 48 129
e 48 133
e 48 146
e 48 149
e 48 163
e 48 165
e 48 174
e 48 180
e 48 192
e 48 204
e 48 208
e 48 219
e 48 224
e 48 229
e 48 230
e 48 235
e 49 55
e 49 56
e 49 58
e 49 81
e 49 83
e 49 95
e 49 103
e 49 127
e 49 133
e 49 144
e 49 145
e 49 149
e 49 152
e 49 165
e 49 216
e 49 225
e 49 229
e 49 234
e 49 242
e 50 51
e 50 52
e 50 63
e 50 67
e 50 70
e 50 72
e 50 74
e 50 77
e 50 82
e 50 83
e 50 88
e 50 91
e 50 94
e 50 95
e 50 97
e 50 98
e 50 103
e 50 124
e 50 133
e 50 136
e 50 140
e 50 145
e 50 155
e 50 161
e 50 169
e 50 181
e 50 187
e 50 189
e 50 195
e 50 200
e 50 214
e 50 233
e 50 234
e 50 253
e 51 56
e 51 65
e 51 77
e 51 81
e 51 82
e 51 87
e 51 92
e 51 95
e 51 103
e 51 105
e 51 108
e 51 110
e 51 118
e 51 127
e 51 129
e 51 131
e 51 133
e 51 137
e 51 147
e 51 151
e 51 168
e 51 211
e 51 225
e 51 230
e 51 236
e 51 238
e 51 249
e 52 55
e 52 58
e 52 63
e 52 71
e 52 75
e 52 82
e 52 91
e 52 95
e 52 98
e 52 103
e 52 124
e 52 135
e 52 143
e 52 183
e 52 208
e 52 227
e 52 251
e 53 55
e 53 61
e 53 78
e 53 90
e 53 91
e 53 96
e 53 119
e 53 129
e 53 179
e 53 185
e 53 186
e 53 189
e 53 191
e 53 202
e 53 214
e 53 246
e 53 250
e 54 61
e 54 66
e 54 67
e 54 70
e 54 75
e 54 79
e 54 95
e 54 100
e 54 101
e 54 102
e 54 106
e 54 108
e 54 125
e 54 129
e 54 133
e 54 134
e 54 135
e 54 144
e 54 145
e 54 159
e 54 164
e 54 182
e 54 187
e 54 200
e 54 213
e 54 231
e 54 252
e 55 63
e 55 65
e 55 70
e 55 77
e 55 83
e 55 85
e 55 88
e 55 94
e 55 109
e 55 115
e 55 116
e 55 123
e 55 124
e 55 133
e 55 151
e 55 154
e 55 165
e 55 166
e 55 171
e 55 173
e 55 175
e 55 177
e 55 179
e 55 188
e 55 190
e 55 206
e 55 229
e 55 234
e 55 247
e 56 57
e 56 78
e 56 79
e 56 98
e 56 114
e 56 134
e 56 149
e 56 178
e 56 179
e 56 182
e 56 184
e 56 188
e 56 193
e 56 197
e 56 209
e 56 229
e 56 231
e 56 248
e 57 58
e 57 60
e 57 66
e 57 70
e 57 73
e 57 85
e 57 99
e 57 103
e 57 111
e 57 117
e 57 125
e 57 128
e 57 129
e 57 132
e 57 148
e 57 150
e 57 152
e 57 155
e 57 156
e 57 157
e 57 166
e 57 181
e 57 182
e 57 201
e 57 202
e 57 227
e 58 60
e 58 65
e 58 67
e 58 71
e 58 81
e 58 84
e 58 87
e 58 90
e 58 103
e 58 108
e 58 128
e 58 142
e 58 154
e 58 171
e 58 174
e 58 177
e 58 186
e 58 187
e 58 215
e 58 241
e 59 60
e 59 65
e 59 68
e 59 71
e 59 75
e 59 83
e 59 93
e 59 95
e 59 96
e 59 99
e 59 103
e 59 104
e 59 108
e 59 126
e 59 130
e 59 136
e 59 141
e 59 142
e 59 146
e 59 147
e 59 150
e 59 153
e 59 158
e 59 160
e 59 166
e 59 184
e 59 194
e 59 197
e 59 198
e 59 204
e 59 215
e 59 216
e 59 225
e 59 228
e 59 231
e 59 235
e 59 242
e 60 62
e 60 65
e 60 74
e 60 75
e 60 78
e 60 90
e 60 97
e 60 101
e 60 103
e 60 106
e 60 112
e 60 138
e 60 148
e 60 158
e 60 167
e 60 211
e 60 220
e 60 223
e 60 238
e 60 248
e 61 71
e 61 89
e 61 115
e 61 123
e 61 127
e 61 144
e 61 176
e 61 183
e 61 201
e 61 211
e 61 215
e 61 239
e 62 63
e 62 66
e 62 67
e 62 80
e 62 101
e 62 107
e 62 113
e 62 120
e 62 128
e 62 130
e 62 135
e 62 143
e 62 156
e 62 168
e 62 170
e 62 178
e 62 179
e 62 181
e 62 185
e 62 227
e 63 76
e 63 84
e 63 85
e 63 94
e 63 104
e 63 114
e 63 115
e 63 116
e 63 120
e 63 121
e 63 141
e 63 143
e 63 147
e 63 149
e 63 159
e 63 171
e 63 172
e 63 173
e 63 176
e 63 178
e 63 205
e 63 210
e 63 231
e 63 233
e 64 73
e 64 78
e 64 82
e 64 87
e 64 94
e 64 98
e 64 102
e 64 110
e 64 129
e 64 133
e 64 179
e 64 180
e 64 189
e 64 209
e 64 219
e 65 74
e 65 77
e 65 96
e 65 98
e 65 99
e 65 104
e 65 109
e 65 119
e 65 120
e 65 122
e 65 143
e 65 144
e 65 157
e 65 164
e 65 167
e 65 174
e 65 187
e 65 225
e 65 232
e 66 67
e 66 68
e 66 70
e 66 77
e 66 78
e 66 81
e 66 98
e 66 104
e 66 119
e 66 124
e 66 128
e 66 137
e 66 150
e 66 170
e 66 173
e 66 183
e 66 188
e 66 196
e 66 201
e 66 219
e 66 226
e 67 74
e 67 87
e 67 105
e 67 110
e 67 118
e 67 136
e 67 140
e 67 152
e 67 153
e 67 157
e 67 160
e 67 190
e 67 192
e 67 205
e 67 211
e 67 233
e 67 237
e 67 247
e 68 72
e 68 74
e 68 84
e 68 88
e 68 96
e 68 100
e 68 108
e 68 132
e 68 137
e 68 138
e 68 139
e 68 142
e 68 158
e 68 183
e 68 189
e 68 194
e 68 197
e 68 203
e 68 207
e 68 210
e 68 216
e 68 222
e 69 72
e 69 75
e 69 82
e 69 98
e 69 103
e 69 109
e 69 144
e 69 145
e 69 159
e 69 172
e 69 197
e 69 201
e 69 212
e 70 71
e 70 96
e 70 99
e 70 112
e 70 115
e 70 122
e 70 123
e 70 126
e 70 158
e 70 182
e 70 194
e 70 200
e 70 204
e 70 210
e 70 223
e 70 230
e 70 247
e 71 73
e 71 76
e 71 86
e 71 92
e 71 93
e 71 95
e 71 100
e 71 125
e 71 129
e 71 131
e 71 148
e 71 150
e 71 163
e 71 178
e 71 180
e 71 205
e 71 206
e 71 214
e 71 226
e 71 248
e 72 87
e 72 88
e 72 91
e 72 98
e 72 121
e 72 132
e 72 139
e 72 141
e 72 219
e 72 240
e 73 76
e 73 82
e 73 85
e 73 96
e 73 99
e 73 104
e 73 117
e 73 123
e 73 142
e 73 156
e 73 160
e 73 173
e 73 208
e 73 215
e 73 221
e 73 231
e 73 238
e 73 247
e 74 80
e 74 152
e 74 158
e 74 167
e 74 196
e 74 203
e 74 230
e 75 79
e 75 105
e 75 123
e 75 139
e 75 153
e 75 168
e 75 197
e 75 200
e 75 247
e 76 86
e 76 92
e 76 101
e 76 121
e 76 127
e 76 134
e 76 147
e 76 156
e 76 163
e 76 186
e 76 203
e 76 232
e 76 236
e 76 252
e 77 86
e 77 89
e 77 102
e 77 104
e 77 116
e 77 117
e 77 119
e 77 208
e 77 245
e 78 81
e 78 89
e 78 94
e 78 100
e 78 104
e 78 107
e 78 110
e 78 117
e 78 119
e 78 130
e 78 134
e 78 138
e 78 144
e 78 148
e 78 168
e 78 172
e 78 178
e 78 183
e 78 190
e 78 195
e 78 199
e 78 205
e 78 213
e 78 219
e 78 253
e 79 87
e 79 89
e 79 92
e 79 93
e 79 101
e 79 104
e 79 133
e 79 138
e 79 142
e 79 146
e 79 147
e 79 150
e 79 156
e 79 157
e 79 166
e 79 168
e 79 195
e 79 200
e 79 208
e 79 212
e 79 221
e 79 223
e 79 243
e 79 245
e 80 83
e 80 85
e 80 110
e 80 113
e 80 116
e 80 122
e 80 132
e 80 161
e 80 171
e 80 194
e 80 206
e 80 217
e 80 239
e 81 83
e 81 84
e 81 86
e 81 93
e 81 109
e 81 112
e 81 114
e 81 122
e 81 126
e 81 129
e 81 137
e 81 143
e 81 146
e 81 153
e 81 162
e 81 175
e 81 179
e 81 188
e 81 193
e 81 204
e 81 208
e 81 219
e 81 236
e 81 241
e 81 248
e 82 113
e 82 133
e 82 139
e 82 157
e 82 244
e 83 84
e 83 90
e 83 94
e 83 113
e 83 119
e 83 126
e 83 164
e 83 168
e 83 173
e 83 177
e 83 194
e 83 213
e 83 252
e 84 100
e 84 101
e 84 118
e 84 127
e 84 128
e 84 159
e 84 165
e 84 167
e 84 200
e 84 209
e 84 217
e 84 232
e 84 233
e 84 245
e 84 250
e 85 100
e 85 125
e 85 141
e 85 146
e 85 151
e 85 159
e 85 161
e 85 164
e 85 170
e 85 184
e 85 211
e 85 246
e 86 107
e 86 109
e 86 110
e 86 112
e 86 116
e 86 118
e 86 119
e 86 134
e 86 142
e 86 156
e 86 165
e 86 170
e 86 179
e 86 193
e 87 94
e 87 96
e 87 97
e 87 109
e 87 149
e 87 179
e 87 216
e 87 220
e 87 233
e 88 93
e 88 127
e 88 128
e 88 144
e 88 145
e 88 174
e 88 192
e 88 231
e 88 238
e 89 90
e 89 105
e 89 114
e 89 117
e 89 124
e 89 126
e 89 156
e 89 161
e 89 163
e 89 164
e 89 165
e 89 171
e 89 190
e 89 192
e 89 208
e 89 210
e 89 246
e 90 101
e 90 130
e 90 157
e 90 184
e 90 194
e 90 199
e 90 218
e 90 224
e 90 225
e 90 227
e 90 232
e 90 240
e 91 107
e 91 112
e 91 203
e 92 105
e 92 131
e 92 135
e 92 160
e 92 202
e 92 249
e 93 108
e 93 114
e 93 126
e 93 135
e 93 139
e 93 163
e 93 167
e 93 170
e 93 187
e 93 207
e 93 243
e 93 246
e 94 111
e 94 150
e 94 152
e 94 160
e 94 169
e 94 203
e 94 209
e 94 212
e 94 251
e 95 112
e 95 114
e 95 129
e 95 132
e 95 135
e 95 138
e 95 155
e 95 192
e 95 201
e 95 208
e 95 229
e 95 252
e 96 102
e 96 116
e 96 121
e 96 122
e 96 148
e 96 156
e 96 159
e 96 186
e 96 197
e 96 221
e 96 224
e 96 229
e 96 236
e 96 246
e 97 98
e 97 117
e 97 121
e 97 151
e 97 177
e 97 192
e 97 209
e 97 221
e 97 239
e 97 247
e 97 253
e 98 107
e 98 113
e 98 121
e 98 130
e 98 132
e 98 134
e 98 136
e 98 140
e 98 143
e 98 144
e 98 151
e 98 166
e 98 190
e 98 191
e 98 199
e 98 234
e 98 235
e 99 100
e 99 118
e 99 123
e 99 154
e 99 160
e 99 169
e 99 218
e 99 220
e 99 250
e 100 109
e 100 131
e 100 224
e 101 102
e 101 105
e 101 107
e 101 110
e 101 113
e 101 121
e 101 122
e 101 125
e 101 129
e 101 200
e 101 202
e 101 212
e 101 214
e 101 220
e 101 224
e 101 231
e 101 239
e 101 242
e 102 113
e 102 114
e 102 115
e 102 134
e 102 141
e 102 142
e 102 146
e 102 150
e 102 153
e 102 161
e 102 170
e 102 174
e 102 176
e 102 180
e 102 213
e 102 216
e 102 217
e 102 233
e 103 107
e 103 110
e 103 128
e 103 142
e 103 147
e 103 153
e 103 156
e 103 168
e 103 169
e 103 192
e 103 215
e 103 249
e 104 124
e 104 146
e 104 149
e 104 159
e 104 160
e 104 165
e 104 207
e 104 208
e 104 248
e 105 116
e 105 148
e 105 177
e 105 199
e 105 247
e 105 252
e 106 140
e 106 144
e 106 154
e 106 155
e 106 157
e 106 174
e 106 191
e 106 194
e 106 204
e 106 227
e 106 229
e 106 233
e 107 132
e 107 135
e 107 140
e 107 164
e 107 167
e 107 169
e 107 173
e 107 177
e 107 185
e 107 189
e 107 191
e 107 192
e 107 198
e 107 203
e 107 250
e 108 109
e 108 111
e 108 118
e 108 128
e 108 130
e 108 135
e 108 147
e 108 158
e 108 170
e 108 188
e 108 190
e 108 196
e 108 212
e 108 222
e 108 246
e 109 118
e 109 163
e 109 193
e 109 221
e 109 226
e 109 238
e 109 250
e 110 113
e 110 117
e 110 118
e 110 131
e 110 137
e 110 157
e 110 162
e 110 187
e 110 188
e 110 193
e 110 203
e 110 253
e 111 112
e 111 149
e 111 166
e 111 170
e 111 172
e 111 175
e 111 177
e 111 202
e 111 212
e 111 226
e 111 227
e 111 242
e 112 179
e 112 196
e 112 199
e 112 222
e 113 120
e 113 133
e 113 156
e 113 161
e 113 173
e 113 174
e 113 200
e 113 203
e 113 207
e 114 115
e 114 166
e 114 180
e 114 184
e 114 186
e 114 194
e 114 199
e 114 239
e 115 121
e 115 134
e 115 154
e 115 164
e 115 178
e 115 182
e 115 194
e 115 217
e 115 220
e 115 233
e 115 235
e 115 251
e 115 253
e 116 127
e 116 130
e 116 133
e 116 135
e 116 136
e 116 145
e 116 148
e 116 157
e 116 172
e 116 183
e 116 206
e 116 215
e 116 224
e 116 237
e 116 241
e 117 134
e 117 150
e 117 159
e 117 163
e 117 164
e 117 165
e 117 188
e 117 191
e 117 205
e 117 220
e 117 222
e 117 232
e 117 242
e 118 203
e 118 207
e 119 128
e 119 135
e 119 164
e 119 170
e 119 183
e 119 211
e 119 228
e 119 239
e 119 246
e 120 131
e 120 134
e 120 138
e 120 139
e 120 141
e 120 206
e 120 218
e 121 126
e 121 130
e 121 144
e 121 154
e 121 162
e 121 176
e 121 179
e 121 183
e 121 207
e 121 210
e 121 234
e 121 240
e 122 176
e 122 240
e 123 146
e 123 160
e 123 207
e 123 231
e 124 163
e 124 166
e 124 193
e 124 198
e 124 203
e 124 246
e 125 157
e 125 183
e 125 192
e 125 223
e 125 236
e 125 251
e 125 252
e 126 169
e 126 172
e 126 177
e 126 212
e 126 214
e 126 226
e 126 229
e 127 128
e 127 133
e 127 155
e 127 161
e 127 171
e 127 175
e 127 177
e 127 180
e 127 184
e 127 217
e 127 239
e 128 136
e 128 143
e 128 150
e 128 152
e 128 168
e 128 190
e 128 200
e 128 205
e 128 232
e 129 142
e 129 149
e 129 153
e 129 175
e 129 178
e 129 186
e 129 208
e 129 246
e 130 132
e 130 134
e 130 136
e 130 144
e 130 150
e 130 151
e 130 158
e 130 179
e 130 185
e 130 218
e 130 222
e 130 226
e 130 229
e 130 247
e 130 249
e 130 251
e 131 136
e 131 138
e 131 196
e 131 217
e 131 243
e 131 250
e 132 187
e 132 202
e 132 203
e 132 209
e 132 230
e 132 242
e 133 141
e 133 181
e 133 224
e 133 245
e 133 251
e 133 253
e 134 168
e 134 171
e 134 172
e 134 176
e 134 192
e 134 199
e 134 200
e 134 201
e 134 215
e 134 228
e 134 248
e 135 137
e 135 141
e 135 189
e 135 193
e 135 195
e 135 200
e 135 205
e 135 209
e 135 221
e 135 234
e 135 245
e 136 140
e 136 144
e 136 155
e 136 165
e 136 185
e 136 199
e 136 222
e 136 223
e 136 248
e 137 140
e 137 158
e 137 204
e 137 233
e 137 241
e 137 247
e 138 163
e 138 165
e 138 192
e 138 203
e 139 150
e 139 151
e 139 220
e 139 247
e 140 174
e 140 204
e 140 206
e 140 221
e 140 235
e 141 175
e 141 184
e 141 201
e 141 226
e 141 227
e 142 145
e 142 165
e 142 185
e 142 199
e 142 225
e 142 230
e 142 244
e 143 163
e 143 167
e 143 181
e 143 213
e 144 146
e 144 159
e 144 164
e 144 198
e 144 201
e 144 204
e 144 213
e 144 237
e 144 245
e 145 148
e 145 165
e 145 175
e 145 177
e 145 205
e 145 219
e 145 232
e 145 242
e 146 148
e 146 167
e 146 171
e 146 199
e 146 214
e 146 225
e 146 233
e 146 238
e 147 153
e 147 155
e 147 182
e 147 217
e 147 231
e 148 154
e 148 157
e 148 159
e 148 168
e 148 170
e 148 201
e 148 215
e 148 216
e 148 230
e 148 235
e 148 236
e 149 156
e 149 162
e 149 185
e 149 198
e 149 199
e 149 202
e 149 206
e 149 211
e 149 213
e 149 221
e 149 230
e 149 243
e 149 244
e 150 171
e 150 172
e 150 185
e 150 201
e 150 202
e 150 204
e 150 221
e 150 231
e 151 228
e 152 221
e 153 161
e 153 166
e 153 196
e 153 233
e 153 243
e 154 169
e 154 173
e 154 200
e 155 172
e 156 224
e 156 236
e 157 176
e 157 180
e 157 183
e 157 240
e 157 248
e 158 164
e 158 184
e 158 187
e 158 221
e 158 231
e 159 160
e 159 181
e 159 224
e 159 240
e 159 244
e 160 161
e 160 190
e 160 194
e 160 205
e 160 225
e 161 167
e 161 174
e 161 196
e 161 209
e 161 222
e 162 176
e 162 179
e 162 197
e 162 204
e 162 209
e 162 222
e 162 228
e 162 252
e 163 170
e 163 184
e 163 191
e 163 240
e 164 171
e 164 182
e 164 186
e 164 188
e 164 193
e 164 207
e 164 228
e 164 234
e 164 238
e 165 185
e 165 191
e 165 229
e 166 186
e 166 196
e 166 212
e 167 172
e 167 190
e 167 197
e 167 210
e 167 211
e 167 220
e 167 230
e 168 208
e 168 235
e 169 181
e 169 185
e 169 195
e 170 183
e 170 193
e 170 196
e 170 235
e 170 243
e 171 181
e 171 190
e 171 202
e 171 213
e 171 227
e 171 242
e 171 253
e 172 177
e 172 181
e 172 189
e 172 192
e 172 208
e 172 212
e 172 233
e 172 239
e 173 189
e 173 204
e 173 243
e 174 233
e 175 182
e 175 199
e 175 210
e 175 214
e 175 217
e 175 237
e 175 244
e 175 252
e 176 188
e 176 213
e 176 224
e 176 226
e 176 243
e 176 245
e 177 215
e 177 218
e 177 239
e 178 190
e 178 209
e 178 239
e 178 251
e 179 205
e 179 219
e 179 230
e 179 236
e 180 193
e 180 205
e 180 208
e 180 248
e 181 191
e 181 216
e 182 190
e 182 211
e 182 228
e 183 198
e 183 218
e 183 224
e 183 237
e 184 189
e 184 217
e 185 197
e 185 198
e 185 205
e 185 209
e 185 234
e 185 237
e 187 223
e 187 245
e 188 195
e 188 202
e 189 218
e 190 202
e 190 221
e 190 250
e 190 252
e 191 193
e 191 195
e 192 202
e 192 219
e 192 226
e 192 245
e 193 195
e 193 209
e 193 214
e 193 216
e 193 235
e 193 239
e 194 198
e 194 239
e 197 209
e 198 217
e 198 226
e 198 228
e 198 247
e 198 248
e 199 201
e 199 216
e 199 218
e 199 238
e 199 241
e 199 243
e 200 213
e 200 217
e 200 232
e 201 242
e 202 208
e 202 210
e 202 220
e 202 227
e 202 250
e 205 234
e 205 244
e 205 250
e 206 216
e 206 231
e 207 219
e 208 221
e 208 241
e 209 214
e 209 240
e 209 246
e 210 224
e 210 229
e 211 212
e 212 214
e 212 222
e 213 244
e 214 224
e 214 246
e 216 243
e 216 245
e 216 246
e 217 230
e 217 244
e 217 252
e 218 235
e 218 237
e 219 242
e 220 237
e 220 249
e 222 239
e 223 226
e 224 238
e 224 241
e 224 244
e 227 236
e 229 237
e 231 232
e 231 236
e 231 244
e 233 242
e 234 238
e 235 246
e 235 248
e 236 244
e 237 241
e 239 253
e 242 249
e 250 252
